(set-info :smt-lib-version 2.6)
(set-logic UFLIA)
(set-info :source |
Generated by: Geoff Sutcliffe
Generated on: 2026-03-11
Generator: TPTPWorld
Application: Benchmarking automated theorem provers
Time limit: 120.0

These benchmarks are translations from the TPTP Library (Thousands of
Problems for Theorem Provers), see http://www.cs.miami.edu/~tptp/

The TPTP is maintained by Geoff Sutcliffe, and he contributed this
selection of benchmarks to SMT-LIB.  They were exported from the
v9.2.1 realease of TPTP.
|)
(set-info :category "industrial")
(set-info :status "unknown")
; SZS status Success
(declare-sort $$unsorted 0)

(declare-sort tptp.general 0)
(declare-sort tptp.symbol 0)
(declare-fun tptp.f__integer__ (Int) tptp.general)
(declare-fun tptp.f__symbolic__ (tptp.symbol) tptp.general)
(declare-fun tptp.c__infimum__ () tptp.general)
(declare-fun tptp.c__supremum__ () tptp.general)
(declare-fun tptp.p__is_integer__ (tptp.general) Bool)
(declare-fun tptp.p__is_symbolic__ (tptp.general) Bool)
(declare-fun tptp.p__less_equal__ (tptp.general tptp.general) Bool)
(declare-fun tptp.p__less__ (tptp.general tptp.general) Bool)
(declare-fun tptp.p__greater_equal__ (tptp.general tptp.general) Bool)
(declare-fun tptp.p__greater__ (tptp.general tptp.general) Bool)
(assert (forall ((X tptp.general)) (= (tptp.p__is_integer__ X) (exists ((N Int)) (= X (tptp.f__integer__ N))))))
(assert (forall ((X1 tptp.general)) (= (tptp.p__is_symbolic__ X1) (exists ((X2 tptp.symbol)) (= X1 (tptp.f__symbolic__ X2))))))
(assert (forall ((X tptp.general)) (or (= X tptp.c__infimum__) (tptp.p__is_integer__ X) (tptp.p__is_symbolic__ X) (= X tptp.c__supremum__))))
(assert (forall ((N1 Int) (N2 Int)) (= (= (tptp.f__integer__ N1) (tptp.f__integer__ N2)) (= N1 N2))))
(assert (forall ((S1 tptp.symbol) (S2 tptp.symbol)) (= (= (tptp.f__symbolic__ S1) (tptp.f__symbolic__ S2)) (= S1 S2))))
(assert (forall ((N1 Int) (N2 Int)) (= (tptp.p__less_equal__ (tptp.f__integer__ N1) (tptp.f__integer__ N2)) (<= N1 N2))))
(assert (forall ((X1 tptp.general) (X2 tptp.general)) (=> (and (tptp.p__less_equal__ X1 X2) (tptp.p__less_equal__ X2 X1)) (= X1 X2))))
(assert (forall ((X1 tptp.general) (X2 tptp.general) (X3 tptp.general)) (=> (and (tptp.p__less_equal__ X1 X2) (tptp.p__less_equal__ X2 X3)) (tptp.p__less_equal__ X1 X3))))
(assert (forall ((X1 tptp.general) (X2 tptp.general)) (or (tptp.p__less_equal__ X1 X2) (tptp.p__less_equal__ X2 X1))))
(assert (forall ((X1 tptp.general) (X2 tptp.general)) (= (tptp.p__less__ X1 X2) (and (tptp.p__less_equal__ X1 X2) (not (= X1 X2))))))
(assert (forall ((X1 tptp.general) (X2 tptp.general)) (= (tptp.p__greater_equal__ X1 X2) (tptp.p__less_equal__ X2 X1))))
(assert (forall ((X1 tptp.general) (X2 tptp.general)) (= (tptp.p__greater__ X1 X2) (and (tptp.p__less_equal__ X2 X1) (not (= X1 X2))))))
(assert (forall ((N Int)) (tptp.p__less__ tptp.c__infimum__ (tptp.f__integer__ N))))
(assert (forall ((N Int) (S tptp.symbol)) (tptp.p__less__ (tptp.f__integer__ N) (tptp.f__symbolic__ S))))
(assert (forall ((S tptp.symbol)) (tptp.p__less__ (tptp.f__symbolic__ S) tptp.c__supremum__)))
(declare-fun tptp.in0 (tptp.general tptp.general) Bool)
(declare-fun tptp.person (tptp.general) Bool)
(declare-fun tptp.goto (tptp.general tptp.general tptp.general) Bool)
(declare-fun tptp.go (tptp.general tptp.general) Bool)
(declare-fun tptp.in_building (tptp.general tptp.general) Bool)
(declare-fun tptp.in (tptp.general tptp.general tptp.general) Bool)
(declare-fun tptp.in_building_p (tptp.general tptp.general) Bool)
(declare-fun tptp.h_i () Int)
(assert (>= tptp.h_i 0))
(assert (forall ((X_g tptp.general) (Y_g tptp.general)) (=> (tptp.in0 X_g Y_g) (tptp.person X_g))))
(assert (forall ((X_g tptp.general) (Y_g tptp.general) (Z_g tptp.general)) (=> (tptp.goto X_g Y_g Z_g) (tptp.person X_g))))
(assert (forall ((V1_g tptp.general) (V2_g tptp.general)) (= (tptp.go V1_g V2_g) (exists ((P_g tptp.general) (T_g tptp.general) (R_g tptp.general)) (and (= V1_g P_g) (= V2_g T_g) (exists ((Z_g tptp.general) (Z1_g tptp.general) (Z2_g tptp.general)) (and (= Z_g P_g) (= Z1_g R_g) (= Z2_g T_g) (tptp.goto Z_g Z1_g Z2_g))))))))
(assert (forall ((V1_g tptp.general) (V2_g tptp.general)) (= (tptp.in_building V1_g V2_g) (exists ((P_g tptp.general) (T_g tptp.general) (R_g tptp.general)) (and (= V1_g P_g) (= V2_g T_g) (exists ((Z_g tptp.general) (Z1_g tptp.general) (Z2_g tptp.general)) (and (= Z_g P_g) (= Z1_g R_g) (= Z2_g T_g) (tptp.in Z_g Z1_g Z2_g))))))))
(assert (forall ((V1_g tptp.general) (V2_g tptp.general)) (= (tptp.in_building_p V1_g V2_g) (exists ((P_g tptp.general) (T_g tptp.general) (R_g tptp.general)) (and (= V1_g P_g) (= V2_g T_g) (exists ((Z_g tptp.general) (Z1_g tptp.general) (Z2_g tptp.general)) (and (= Z_g P_g) (= Z1_g R_g) (= Z2_g T_g) (tptp.in Z_g Z1_g Z2_g))))))))
(assert (forall ((P_g tptp.general) (R1_g tptp.general) (T_g tptp.general) (R2_g tptp.general)) (=> (and (exists ((Z_g tptp.general) (Z1_g tptp.general) (Z2_g tptp.general)) (and (= Z_g P_g) (= Z1_g R1_g) (= Z2_g T_g) (tptp.in Z_g Z1_g Z2_g))) (exists ((Z_g tptp.general) (Z1_g tptp.general) (Z2_g tptp.general)) (and (= Z_g P_g) (= Z1_g R2_g) (= Z2_g T_g) (tptp.in Z_g Z1_g Z2_g))) (exists ((Z_g tptp.general) (Z1_g tptp.general)) (and (= Z_g R1_g) (= Z1_g R2_g) (not (= Z_g Z1_g))))) false)))
(assert (forall ((P_g tptp.general) (T_g tptp.general)) (=> (and (exists ((Z_g tptp.general) (Z1_g tptp.general)) (and (= Z_g P_g) (= Z1_g T_g) (not (tptp.in_building_p Z_g Z1_g)))) (exists ((Z_g tptp.general)) (and (= Z_g P_g) (tptp.person Z_g))) (exists ((Z_g tptp.general) (Z1_g tptp.general)) (and (= Z_g T_g) (exists ((I_i Int) (J_i Int) (K_i Int)) (and (= I_i 0) (= J_i tptp.h_i) (= Z1_g (tptp.f__integer__ K_i)) (<= I_i K_i) (<= K_i J_i))) (= Z_g Z1_g)))) false)))
(assert (forall ((V1_g tptp.general) (V2_g tptp.general) (V3_g tptp.general)) (= (tptp.in V1_g V2_g V3_g) (or (exists ((P_g tptp.general) (R_g tptp.general)) (and (= V1_g P_g) (= V2_g R_g) (= V3_g (tptp.f__integer__ 0)) (exists ((Z_g tptp.general) (Z1_g tptp.general)) (and (= Z_g P_g) (= Z1_g R_g) (tptp.in0 Z_g Z1_g))))) (exists ((P_g tptp.general) (R_g tptp.general) (T_g tptp.general)) (and (= V1_g P_g) (= V2_g R_g) (exists ((I_i Int) (J_i Int)) (and (= V3_g (tptp.f__integer__ (+ I_i J_i))) (= (tptp.f__integer__ I_i) T_g) (= J_i 1))) (exists ((Z_g tptp.general) (Z1_g tptp.general) (Z2_g tptp.general)) (and (= Z_g P_g) (= Z1_g R_g) (= Z2_g T_g) (tptp.goto Z_g Z1_g Z2_g))))) (exists ((P_g tptp.general) (R_g tptp.general) (T_g tptp.general)) (and (= V1_g P_g) (= V2_g R_g) (exists ((I_i Int) (J_i Int)) (and (= V3_g (tptp.f__integer__ (+ I_i J_i))) (= (tptp.f__integer__ I_i) T_g) (= J_i 1))) (exists ((Z_g tptp.general) (Z1_g tptp.general) (Z2_g tptp.general)) (and (= Z_g P_g) (= Z1_g R_g) (= Z2_g T_g) (tptp.in Z_g Z1_g Z2_g))) (exists ((Z_g tptp.general) (Z1_g tptp.general)) (and (= Z_g T_g) (exists ((I_i Int) (J_i Int) (K_i Int)) (and (= I_i 0) (exists ((I_i Int) (J1_i Int)) (and (= J_i (- I_i J1_i)) (= I_i tptp.h_i) (= J1_i 1))) (= Z1_g (tptp.f__integer__ K_i)) (<= I_i K_i) (<= K_i J_i))) (= Z_g Z1_g))) (not (not (tptp.in V1_g V2_g V3_g)))))))))
(assert (not (forall ((X_g tptp.general) (Y_g tptp.general)) (=> (tptp.in X_g Y_g (tptp.f__integer__ 0)) (tptp.person X_g)))))
(check-sat)
(exit)
